p edge 20 58 10
v 2 5 19
v 1 11
v 3 6 12 13
v 2 4 16
v 3 1 3 15
v 1 17
v 3 8 18 20
v 2 2 14
v 1 7
v 2 9 10
e 1 4
e 1 8
e 1 14
e 2 4
e 2 6
e 2 11
e 2 12
e 2 13
e 3 4
e 3 7
e 3 10
e 3 14
e 3 16
e 3 18
e 3 19
e 3 20
e 4 8
e 4 9
e 4 12
e 4 14
e 4 18
e 4 20
e 5 15
e 5 19
e 6 7
e 6 8
e 6 15
e 6 17
e 7 9
e 7 11
e 7 13
e 7 15
e 7 16
e 8 9
e 8 10
e 8 15
e 8 16
e 9 10
e 9 17
e 9 18
e 10 13
e 10 14
e 10 15
e 10 17
e 10 19
e 11 12
e 11 15
e 11 17
e 12 13
e 12 16
e 12 19
e 13 17
e 13 20
e 14 15
e 14 19
e 15 19
e 15 20
e 16 18
